1	1150	1760
2	630	1660
3	40	2090
4	750	1100
5	750	2030
6	1030	2070
7	1650	650
8	1490	1630
9	790	2260
10	710	1310
11	840	550
12	1170	2300
13	970	1340
14	510	700
15	750	900
16	1280	1200
17	230	590
18	460	860
19	1040	950
20	590	1390
21	830	1770
22	490	500
23	1840	1240
24	1260	1500
25	1280	790
26	490	2130
27	1460	1420
28	1260	1910
29	360	1980
